52
100
70	1
69	2
68	2
66	1
65	1
64	4
63	2
61	2
60	2
59	2
58	2
57	1
56	2
55	2
54	1
53	2
52	2
51	2
50	1
49	1
48	2
47	2
46	2
45	3
44	1
42	2
40	3
39	1
38	3
37	3
36	3
35	2
32	2
30	1
29	2
28	3
27	2
26	2
25	3
24	1
23	1
22	2
20	3
19	3
18	1
17	3
16	1
14	2
13	2
12	1
11	2
10	1
